c 9th DIMACS Implementation Challenge: Shortest Paths
c http://www.dis.uniroma1.it/~challenge9
c TIGER/Line graph USA-road-t.FLA
c
p sp 1070376 2712798
c graph contains 1070376 nodes and 2712798 arcs
c
a 1 2 35469
a 2 1 35469
a 5 6 5497
a 6 5 5497
a 7 5 3641
a 5 7 3641
a 8 9 9252
a 9 8 9252
a 8 10 1561
a 10 8 1561
a 11 12 1543
a 12 11 1543
a 12 13 3146
a 13 12 3146
a 14 15 5963
a 15 14 5963
a 13 14 2237
a 14 13 2237
a 14 16 193
a 16 14 193
a 17 18 6818
a 18 17 6818
a 17 19 4909
a 19 17 4909
a 6 20 3566
a 20 6 3566
a 20 21 822
a 21 20 822
a 7 20 5588
a 20 7 5588
a 22 23 4093
a 23 22 4093
a 22 24 6226
a 24 22 6226
a 21 25 18717
a 25 21 18717
a 26 4 2401
a 4 26 2401
